Version identifier: 22.1.0.0 | 2022-03-09 | 1a383f8ce
CPXPARAM_Threads                                 1
CPXPARAM_MIP_Strategy_VariableSelect             3
CPXPARAM_TimeLimit                               600
Tried aggregator 1 time.
MIP Presolve eliminated 315 rows and 2170 columns.
Reduced MIP has 1867 rows, 5270 columns, and 20102 nonzeros.
Reduced MIP has 4031 binaries, 1239 generals, 0 SOSs, and 0 indicators.
Presolve time = 0.02 sec. (10.92 ticks)
Found incumbent of value 835.000000 after 0.04 sec. (26.85 ticks)
Probing fixed 0 vars, tightened 1 bounds.
Probing time = 0.01 sec. (9.77 ticks)
Tried aggregator 1 time.
Detecting symmetries...
Reduced MIP has 1867 rows, 5270 columns, and 20102 nonzeros.
Reduced MIP has 4032 binaries, 1238 generals, 0 SOSs, and 0 indicators.
Presolve time = 0.01 sec. (11.45 ticks)
Probing time = 0.01 sec. (5.22 ticks)
Clique table members: 332.
MIP emphasis: balance optimality and feasibility.
MIP search method: dynamic search.
Parallel mode: none, using 1 thread.
Root relaxation solution time = 0.02 sec. (15.98 ticks)

        Nodes                                         Cuts/
   Node  Left     Objective  IInf  Best Integer    Best Bound    ItCnt     Gap

*     0+    0                          835.0000        0.0000           100.00%
      0     0        0.0000   141      835.0000        0.0000      502  100.00%
*     0+    0                            0.0000        0.0000             0.00%
      0     0        cutoff              0.0000        0.0000      502    0.00%
Elapsed time = 0.17 sec. (132.84 ticks, tree = 0.01 MB, solutions = 2)

Root node processing (before b&c):
  Real time             =    0.17 sec. (133.11 ticks)
Sequential b&c:
  Real time             =    0.00 sec. (0.00 ticks)
                          ------------
Total (root+branch&cut) =    0.17 sec. (133.11 ticks)
Primal number of violations:	0
Dual number of violations:	0
Status:	Optimal
Time:	0.18
Sequence:
	5
	9
	5
	9
	9
	9
	1
	9
	9
	1
	9
	9
	9
	9
	9
	9
	9
	9
	9
	9
	9
	9
	5
	9
	9
	6
	9
	5
	9
	5
	9
	9
	5
	9
	9
	9
	9
	9
	0
	1
	9
	4
	6
	0
	5
	9
	1
	0
	5
	9
	9
	2
	5
	9
	5
	0
	4
	1
	9
	0
	9
	9
	9
	9
	9
	9
	9
	9
	9
	9
	9
	9
	9
	9
	0
	4
	5
	0
	4
	5
	0
	5
	9
	5
	0
	5
	9
	5
	0
	5
	4
	1
	0
	1
	9
	0
	5
	4
	0
	4
	4
	1
	0
	5
	4
	0
	5
	9
	5
	4
	1
	4
	4
	9
	5
	0
	4
	5
	0
	5
	9
	6
	0
	1
	4
	5
	0
	9
	6
	0
	4
	5
	0
	5
	9
	0
	1
	4
	5
	0
	4
	5
	0
	1
	4
	5
	0
	5
	4
	0
	4
	5
	9
	0
	5
	9
	5
	9
	9
	9
	9
	9
	9
	5
	9
	5
	4
	1
	0
	4
	1
	4
	4
	1
	4
	9
	1
	9
	4
	9
	1
	0
	5
	4
	1
	0
	1
	4
	4
	0
	6
	4
	9
	9
	1
	4
	1
	9
	1
	9
	1
	9
	1
	9
	1
	9
	9
	1
	9
	1
	9
	1
	4
	6
	0
	5
	9
	5
	9
	1
	0
	1
	9
	1
	9
	1
	9
	1
	0
	9
	1
	9
	9
	0
	5
	4
	1
	4
	1
	4
	1
	4
	4
	0
	4
	4
	0
	4
	9
	4
	0
	1
	4
	4
	1
	4
	4
	0
	1
	4
	0
	4
	4
	0
	9
	1
	0
	9
	1
	0
	5
	9
	9
	9
	9
	9
	9
	9
	9
	9
	0
	5
	9
	9
	9
	9
	9
	0
	9
	9
	9
	5
	0
	9
	4
	5
	0
	5
	9
	0
	9
	4
	0
	4
	4
	1
	9
	9
	0
	1
